
===== New CPLEX run =====
Instance: /home/yorig/tuner/mpils-tests/instances/miplib/easy/mas74.mps
Config: /scratch/yorig/mpils-results-grid-ticks-10000-divide/easy/16proc/seed-4/5_mas74_seed-4_20260429_043455/expansion/config_param_CPXPARAM_MIP_Strategy_PresolveNode_3_iter_2.prm
========================

Selected objective sense:  MINIMIZE
Selected objective  name:  obj
Selected RHS        name:  rhs
Selected bound      name:  bnd
Version identifier: 22.1.2.0 | 2024-11-26 | 0edbb82fd
CPXPARAM_Threads                                 8
CPXPARAM_Parallel                                1
CPXPARAM_MIP_Cuts_Cliques                        1
CPXPARAM_MIP_Cuts_Covers                         -1
CPXPARAM_MIP_Strategy_PresolveNode               3
CPXPARAM_MIP_Cuts_FlowCovers                     -1
CPXPARAM_MIP_Cuts_Implied                        -1
CPXPARAM_MIP_Cuts_GUBCovers                      -1
CPXPARAM_MIP_Limits_GomoryCand                   10
CPXPARAM_MIP_Cuts_Gomory                         2
CPXPARAM_MIP_Cuts_PathCut                        2
CPXPARAM_MIP_Cuts_MIRCut                         -1
CPXPARAM_MIP_Cuts_Disjunctive                    2
CPXPARAM_Emphasis_MIP                            3
CPXPARAM_MIP_Strategy_RINSHeur                   60
CPXPARAM_DetTimeLimit                            10000
CPXPARAM_MIP_Limits_CutsFactor                   1
Found incumbent of value 157344.610330 after 0.00 sec. (0.02 ticks)
Tried aggregator 1 time.
MIP Presolve eliminated 0 rows and 3 columns.
Reduced MIP has 13 rows, 148 columns, and 1682 nonzeros.
Reduced MIP has 145 binaries, 2 generals, 0 SOSs, and 0 indicators.
Presolve time = 0.00 sec. (0.84 ticks)
Probing time = 0.00 sec. (0.09 ticks)
Tried aggregator 1 time.
Detecting symmetries...
Reduced MIP has 13 rows, 148 columns, and 1682 nonzeros.
Reduced MIP has 145 binaries, 2 generals, 0 SOSs, and 0 indicators.
Presolve time = 0.00 sec. (0.79 ticks)
Probing time = 0.00 sec. (0.09 ticks)
MIP emphasis: best bound.
MIP search method: dynamic search.
Parallel mode: deterministic, using up to 8 threads.
Root relaxation solution time = 0.01 sec. (0.72 ticks)

        Nodes                                         Cuts/
   Node  Left     Objective  IInf  Best Integer    Best Bound    ItCnt     Gap

*     0+    0                       157344.6103        0.0000           100.00%
*     0+    0                        51840.4943        0.0000           100.00%
      0     0    10482.7953    12    51840.4943    10482.7953       43   79.78%
*     0+    0                        19197.4680    10482.7953            45.39%
*     0+    0                        15240.3317    10482.7953            31.22%
*     0+    0                        14372.8713    10482.7953            27.07%
*     0+    0                        13174.3215    10513.0180            20.20%
Detecting symmetries...
      0     2    10482.7953    12    13174.3215    10534.0211       43   20.04%
Elapsed time = 0.56 sec. (11.09 ticks, tree = 0.02 MB, solutions = 6)
*    10+    7                        12915.1000    10534.0211            18.44%
*    55+   39                        12759.1000    10534.0211            17.44%
*   494+  331                        12715.8924    10542.8535            17.09%
*   550+  257                        12291.0216    10542.8535            14.22%
*  1496+  809                        12193.0839    10659.9191            12.57%

Performing restart 1

Repeating presolve.
Tried aggregator 1 time.
MIP Presolve eliminated 0 rows and 42 columns.
Reduced MIP has 13 rows, 106 columns, and 1144 nonzeros.
Reduced MIP has 104 binaries, 1 generals, 0 SOSs, and 0 indicators.
Presolve time = 0.00 sec. (0.41 ticks)
Tried aggregator 1 time.
Reduced MIP has 13 rows, 106 columns, and 1144 nonzeros.
Reduced MIP has 104 binaries, 1 generals, 0 SOSs, and 0 indicators.
Presolve time = 0.00 sec. (0.52 ticks)
Represolve time = 0.00 sec. (1.31 ticks)
*  2929+  308                        12039.4680    10731.7129            10.86%
   3143   489    10910.7023    12    12039.4680    10731.7129    16829   10.86%
*  4173+ 1087                        12015.0899    10775.7981            10.31%
*  4898+ 2043                        11931.6944    10816.9651             9.34%
  10767  7623    11340.5696    12    11931.6944    10936.2517    64397    8.34%
  27608 23061    11201.2712    11    11931.6944    11061.7207   169635    7.29%
* 28597+24776                        11891.2631    11066.8698             6.93%
* 29469+25206                        11877.6944    11071.0335             6.79%
* 29818+25206                        11801.1857    11075.3230             6.15%
  39644 35003    11143.5931    12    11801.1857    11109.0227   255430    5.87%
  48319 42754    11283.0489    11    11801.1857    11109.0227   309153    5.87%
  58272 51183    11249.9645    12    11801.1857    11111.8517   367906    5.84%

Performing restart 2

Repeating presolve.
Tried aggregator 1 time.
MIP Presolve eliminated 0 rows and 9 columns.
Reduced MIP has 13 rows, 97 columns, and 1030 nonzeros.
Reduced MIP has 95 binaries, 1 generals, 0 SOSs, and 0 indicators.
Presolve time = 0.00 sec. (0.34 ticks)
Tried aggregator 1 time.
Reduced MIP has 13 rows, 97 columns, and 1030 nonzeros.
Reduced MIP has 95 binaries, 1 generals, 0 SOSs, and 0 indicators.
Presolve time = 0.00 sec. (0.46 ticks)
Represolve time = 0.02 sec. (2.05 ticks)
  65419   876    11077.5843    12    11801.1857    11144.3428   419608    5.57%
  78216 12677    11595.4498    11    11801.1857    11144.3428   498009    5.57%
  94511 27641    11148.5970    11    11801.1857    11144.3428   600798    5.57%
 163413 88329    11331.6249    10    11801.1857    11270.0970  1032220    4.50%
Elapsed time = 17.18 sec. (3110.71 ticks, tree = 20.28 MB, solutions = 24)
 234063 144135    11427.9432    12    11801.1857    11342.5667  1448994    3.89%
 302303 195942        cutoff          11801.1857    11389.7395  1857110    3.49%
 368592 242685        cutoff          11801.1857    11425.6647  2242557    3.18%
 437489 288189    11479.6397     8    11801.1857    11456.3040  2641862    2.92%
 506652 332045    11495.6654    11    11801.1857    11483.2371  3050102    2.69%
 575530 370610    11546.3998    11    11801.1857    11506.6124  3437042    2.50%
 644564 405983    11551.0496    11    11801.1857    11527.6394  3817966    2.32%

Clique cuts applied:  0
Flow path cuts applied:  0
Gomory fractional cuts applied:  0
Disjunctive cuts applied:  0
Cone linearizations applied:  0

Root node processing (before b&c):
  Real time             =    0.46 sec. (11.00 ticks)
Parallel b&c, 8 threads:
  Real time             =   54.10 sec. (9989.44 ticks)
  Sync time (average)   =   26.47 sec.
  Wait time (average)   =    0.36 sec.
                          ------------
Total (root+branch&cut) =   54.56 sec. (10000.44 ticks)
Gap: 2.28%
Upper bound: 11801.2
Lower bound: 11532.3
End of CPLEX run. Time: 54.586 seconds
